*<meta creator='lp_solve v5.5'>
*<meta rows=7>
*<meta columns=5>
*<meta equalities=0>
*<meta integers=0>
*<meta origsense='MIN'>
*
NAME                  
ROWS
 N  R0      
 G  R1      
 G  R2      
 G  R3      
 L  R4      
 L  R5      
 L  R6      
 L  R7      
COLUMNS
    C1        R0        634.00000000   R1        1.0000000000
    C1        R4        10.000000000   R6        6.0000000000
    C1        R7        3.0000000000
    C2        R0        560.00000000   R2        1.0000000000
    C2        R4        8.0000000000   R6        10.000000000
    C3        R0        570.00000000   R2        1.0000000000
    C3        R5        6.0000000000   R7        9.0000000000
    C4        R0        704.00000000   R3        1.0000000000
    C4        R4        8.0000000000   R6        16.000000000
    C5        R0        812.00000000   R3        1.0000000000
    C5        R5        10.000000000   R6        3.0000000000
    C5        R7        8.0000000000
RHS
    RHS       R1        36.000000000   R2        45.000000000
    RHS       R3        10.000000000   R4        480.00000000
    RHS       R5        480.00000000   R6        480.00000000
    RHS       R7        480.00000000
ENDATA
